SCIP Status        : solving was interrupted [time limit reached]
Total Time         :    3600.01
  solving          :    3600.00
  presolving       :       0.16 (included in solving)
  reading          :       0.00
  copying          :       0.08 (19 #copies) (minimal 0.00, maximal 0.01, average 0.00)
Original Problem   :
  Problem name     : casctanks
  Variables        : 501 (0 binary, 40 integer, 0 implicit integer, 461 continuous)
  Constraints      : 518 initial, 518 maximal
  Objective        : minimize, 1 non-zeros (abs.min = 1, abs.max = 1)
Presolved Problem  :
  Problem name     : t_casctanks
  Variables        : 967 (34 binary, 0 integer, 0 implicit integer, 933 continuous)
  Constraints      : 406 initial, 407 maximal
  Objective        : minimize, 1 non-zeros (abs.min = 1, abs.max = 1)
  Nonzeros         : 1294 constraint, 0 clique table
Presolvers         :   ExecTime  SetupTime  Calls  FixedVars   AggrVars   ChgTypes  ChgBounds   AddHoles    DelCons    AddCons   ChgSides   ChgCoefs
  boundshift       :       0.00       0.00      0          0          0          0          0          0          0          0          0          0
  convertinttobin  :       0.00       0.00      0          0          0          0          0          0          0          0          0          0
  domcol           :       0.00       0.00      2          0          0          0          0          0          0          0          0          0
  dualagg          :       0.00       0.00      0          0          0          0          0          0          0          0          0          0
  dualcomp         :       0.00       0.00      2          0          0          0          0          0          0          0          0          0
  dualinfer        :       0.00       0.00      0          0          0          0          0          0          0          0          0          0
  dualsparsify     :       0.00       0.00      1          0          0          0          0          0          0          0          0          0
  gateextraction   :       0.00       0.00      0          0          0          0          0          0          0          0          0          0
  implics          :       0.00       0.00      3          0          0          0          0          0          0          0          0          0
  inttobinary      :       0.00       0.00      0          0          0          0          0          0          0          0          0          0
  qpkktref         :       0.00       0.00      0          0          0          0          0          0          0          0          0          0
  redvub           :       0.00       0.00      0          0          0          0          0          0          0          0          0          0
  sparsify         :       0.00       0.00      1          0          0          0          0          0          0          0          0          0
  stuffing         :       0.00       0.00      0          0          0          0          0          0          0          0          0          0
  trivial          :       0.00       0.00     12          7          0          0          0          0          0          0          0          0
  tworowbnd        :       0.00       0.00      0          0          0          0          0          0          0          0          0          0
  dualfix          :       0.00       0.00     12          0          0          0          0          0          0          0          0          0
  genvbounds       :       0.00       0.00      0          0          0          0          0          0          0          0          0          0
  probing          :       0.10       0.00      2          2          0          0         87          0          0          0          0          0
  pseudoobj        :       0.00       0.00      0          0          0          0          0          0          0          0          0          0
  symmetry         :       0.00       0.00      1          0          0          0          0          0          0          0          0          0
  vbounds          :       0.00       0.00      0          0          0          0          0          0          0          0          0          0
  varbound         :       0.00       0.00      7          0          0          0          2          0          8          0          2          0
  linear           :       0.00       0.00     15          7        106          0        407          0        104          0        155        236
  nonlinear        :       0.06       0.01     17          0          0          0        375          0          0          0          0       -236
  benders          :       0.00       0.00      0          0          0          0          0          0          0          0          0          0
  components       :       0.00       0.00      1          0          0          0          0          0          0          0          0          0
  root node        :          -          -      -          0          -          -        753          -          -          -          -          -
Constraints        :     Number  MaxNumber  #Separate #Propagate    #EnfoLP    #EnfoRelax  #EnfoPS    #Check   #ResProp    Cutoffs    DomReds       Cuts    Applied      Conss   Children
  benderslp        :          0          0          0          0     227148          0          0     123104          0          0          0          0          0          0          0
  integral         :          0          0          0          0     227148          0          0     123104          0          0       2964          0          0          0       3932
  varbound         :        136        136         40     255013          0          0          0     123099          2          0       2284          0          0          0          0
  linear           :         61+        62         40     255015          0          0          0     122480          0          2      62455          0          0          0          0
  nonlinear        :        209        209     875828     255013     224841          0          0     122478          0         10     539551   18583119   15780933          0     235466
  benders          :          0          0          0          0          0          0          0         91          0          0          0          0          0          0          0
  countsols        :          0          0          0          0          0          0          0         91          0          0          0          0          0          0          0
  components       :          0          0          0          0          0          0          0          0          0          0          0          0          0          0          0
Constraint Timings :  TotalTime  SetupTime   Separate  Propagate     EnfoLP     EnfoPS     EnfoRelax   Check    ResProp    SB-Prop
  benderslp        :       0.12       0.00       0.00       0.00       0.11       0.00       0.00       0.01       0.00       0.00
  integral         :       3.20       0.00       0.00       0.00       3.18       0.00       0.00       0.01       0.00       0.00
  varbound         :       1.54       0.00       0.00       0.18       0.00       0.00       0.00       1.34       0.00       0.02
  linear           :       1.15       0.00       0.00       0.91       0.00       0.00       0.00       0.21       0.00       0.02
  nonlinear        :    1167.28       0.01     871.85      43.30     238.34       0.00       0.00      12.92       0.00       0.86
  benders          :       0.00       0.00       0.00       0.00       0.00       0.00       0.00       0.00       0.00       0.00
  countsols        :       0.00       0.00       0.00       0.00       0.00       0.00       0.00       0.00       0.00       0.00
  components       :       0.05       0.00       0.00       0.05       0.00       0.00       0.00       0.00       0.00       0.00
Propagators        : #Propagate   #ResProp    Cutoffs    DomReds
  dualfix          :         13          0          0          0
  genvbounds       :      13930          0          0      32295
  nlobbt           :          0          0          0          0
  obbt             :          9          0          0         60
  probing          :          0          0          0          0
  pseudoobj        :     477169          0          0         28
  redcost          :    1225202          0          0          0
  rootredcost      :          4          0          0          1
  symmetry         :          0          0          0          0
  vbounds          :      20170          0          0          0
Propagator Timings :  TotalTime  SetupTime   Presolve  Propagate    ResProp    SB-Prop
  dualfix          :       0.00       0.00       0.00       0.00       0.00       0.00
  genvbounds       :       1.32       0.00       0.00       1.32       0.00       0.00
  nlobbt           :       0.00       0.00       0.00       0.00       0.00       0.00
  obbt             :       2.40       0.00       0.00       2.40       0.00       0.00
  probing          :       0.10       0.00       0.10       0.00       0.00       0.00
  pseudoobj        :       0.73       0.00       0.00       0.73       0.00       0.00
  redcost          :       8.18       0.00       0.00       8.18       0.00       0.00
  rootredcost      :       0.27       0.00       0.00       0.27       0.00       0.00
  symmetry         :       0.08       0.00       0.00       0.07       0.00       0.00
  vbounds          :       0.31       0.00       0.00       0.31       0.00       0.00
Conflict Analysis  :       Time      Calls    Success    DomReds  Conflicts   Literals    Reconvs ReconvLits   Dualrays   Nonzeros   LP Iters   (pool size: [--,--])
  propagation      :       0.00          0          0          -          0        0.0          0        0.0          -          -          -
  infeasible LP    :       0.00          2          1          -          1        2.0          0        0.0          1        2.0          0
  bound exceed. LP :       0.06        135          0          -          0        0.0          0        0.0          0        0.0          0
  strong branching :       0.00          0          0          -          0        0.0          0        0.0          -          -          0
  pseudo solution  :       0.00          0          0          -          0        0.0          0        0.0          -          -          -
  applied globally :       0.00          -          -          0          0        0.0          -          -          1          -          -
  applied locally  :          -          -          -          0          0        0.0          -          -          0          -          -
Separators         :   ExecTime  SetupTime      Calls  RootCalls    Cutoffs    DomReds  FoundCuts ViaPoolAdd  DirectAdd    Applied ViaPoolApp  DirectApp      Conss
  cut pool         :       0.09          -     127700         71          -          -        221        196          -          -          -          -          -    (maximal pool size:        144)
  aggregation      :       0.25       0.00        164         40          0          0        116        111          1         54         54          0          0
  > cmir           :          -          -          -          -          -          -          -        108          1         52         52          0          -
  > flowcover      :          -          -          -          -          -          -          -          3          0          2          2          0          -
  > knapsackcover  :          -          -          -          -          -          -          -          0          0          0          0          0          -
  cgmip            :       0.00       0.00          0          0          0          0          0          0          0          0          0          0          0
  clique           :       0.00       0.00          1          1          0          0          0          0          0          0          0          0          0
  closecuts        :       0.00       0.00          0          0          0          0          0          0          0          0          0          0          0
  convexproj       :       0.00       0.00          0          0          0          0          0          0          0          0          0          0          0
  disjunctive      :       0.00       0.00          0          0          0          0          0          0          0          0          0          0          0
  eccuts           :       0.00       0.00          0          0          0          0          0          0          0          0          0          0          0
  gauge            :       0.00       0.00          0          0          0          0          0          0          0          0          0          0          0
  gomory           :       0.02       0.00        121         10          0          0         60         65          4         39         35          4          0
  > gomorymi       :          -          -          -          -          -          -          -         65          4         39         35          4          -
  > strongcg       :          -          -          -          -          -          -          -          0          0          0          0          0          -
  impliedbounds    :       0.01       0.00        164         40          0          0         15         15          0          5          5          0          0
  interminor       :       0.00       0.00          0          0          0          0          0          0          0          0          0          0          0
  intobj           :       0.00       0.00          0          0          0          0          0          0          0          0          0          0          0
  mcf              :       0.00       0.00          1          1          0          0          0          0          0          0          0          0          0
  minor            :       0.00       0.00          0          0          0          0          0          0          0          0          0          0          0
  mixing           :       0.11       0.00       2800         40          0          0          0          0          0          0          0          0          0
  oddcycle         :       0.00       0.00          0          0          0          0          0          0          0          0          0          0          0
  rapidlearning    :       0.08       0.00          0          0          0          0          0          0          0          0          0          0          0
  rlt              :       0.00       0.00         10         10          0          0         35          5          0          2          2          0          0
  zerohalf         :       0.03       0.00        131         20          0          0          0          0          0          0          0          0          0
Cutselectors       :   ExecTime  SetupTime      Calls  RootCalls   Selected     Forced   Filtered  RootSelec   RootForc   RootFilt 
  hybrid           :      12.08       0.00     790667         36   15435404        128    2100037       1250          0        578
Pricers            :   ExecTime  SetupTime      Calls       Vars
  problem variables:       0.00          -          0          0
Branching Rules    :   ExecTime  SetupTime   BranchLP  BranchExt   BranchPS    Cutoffs    DomReds       Cuts      Conss   Children
  allfullstrong    :       0.00       0.00          0          0          0          0          0          0          0          0
  cloud            :       0.00       0.00          0          0          0          0          0          0          0          0
  distribution     :       0.00       0.00          0          0          0          0          0          0          0          0
  fullstrong       :       0.00       0.00          0          0          0          0          0          0          0          0
  inference        :       0.00       0.00          0          0          0          0          0          0          0          0
  leastinf         :       0.00       0.00          0          0          0          0          0          0          0          0
  lookahead        :       0.00       0.00          0          0          0          0          0          0          0          0
  mostinf          :       0.00       0.00          0          0          0          0          0          0          0          0
  multaggr         :       0.00       0.00          0          0          0          0          0          0          0          0
  nodereopt        :       0.00       0.00          0          0          0          0          0          0          0          0
  pscost           :       0.00       0.00          0          0          0          0          0          0          0          0
  random           :       0.00       0.00          0          0          0          0          0          0          0          0
  relpscost        :       3.09       0.00       2307          0          0          0       2964          0          0       3932
  vanillafullstrong:       0.00       0.00          0          0          0          0          0          0          0          0
Primal Heuristics  :   ExecTime  SetupTime      Calls      Found       Best
  LP solutions     :       0.00          -          -          0          0
  relax solutions  :       0.00          -          -          0          0
  pseudo solutions :       0.00          -          -          0          0
  strong branching :       0.01          -          -          0          0
  actconsdiving    :       0.00       0.00          0          0          0
  adaptivediving   :       5.45       0.00      12655          0          0
  alns             :       0.49       0.00         13          0          0
  bound            :       0.00       0.00          0          0          0
  clique           :       0.00       0.00          0          0          0
  coefdiving       :       0.00       0.00          0          0          0
  completesol      :       0.00       0.00          0          0          0
  conflictdiving   :       3.94       0.00      11925          0          0
  crossover        :       4.70       0.00          1          0          0
  dins             :       0.00       0.00          0          0          0
  distributiondivin:       0.67       0.00         12          0          0
  dps              :       0.00       0.00          0          0          0
  dualval          :       0.00       0.00          0          0          0
  farkasdiving     :       0.01       0.00          0          0          0
  feaspump         :       0.01       0.00          1          0          0
  fixandinfer      :       0.00       0.00          0          0          0
  fracdiving       :       0.93       0.00       2889          0          0
  gins             :       0.07       0.00          0          0          0
  guideddiving     :       4.00       0.00      15909          0          0
  indicator        :       0.42       0.00          0          0          0
  indicatordiving  :       0.00       0.00          0          0          0
  intdiving        :       0.00       0.00          0          0          0
  intshifting      :       0.03       0.00          8          0          0
  linesearchdiving :       3.26       0.00      12782          0          0
  localbranching   :       0.00       0.00          0          0          0
  locks            :       0.02       0.00          1          0          0
  lpface           :       0.07       0.00          0          0          0
  mpec             :       2.76       0.00          1          0          0
  multistart       :       0.00       0.00          0          0          0
  mutation         :       0.00       0.00          0          0          0
  nlpdiving        :       2.20       0.00          1          0          0
  objpscostdiving  :       0.02       0.00          3          0          0
  octane           :       0.00       0.00          0          0          0
  ofins            :       0.05       0.00          0          0          0
  oneopt           :       0.09       0.00          4          0          0
  padm             :       0.00       0.00          0          0          0
  proximity        :       0.00       0.00          0          0          0
  pscostdiving     :       0.08       0.00         14          0          0
  randrounding     :       0.55       0.00       1657          0          0
  rens             :       0.02       0.00          1          0          0
  reoptsols        :       0.00       0.00          0          0          0
  repair           :       0.00       0.00          0          0          0
  rins             :      48.18       0.00          4          0          0
  rootsoldiving    :       0.01       0.00          2          0          0
  rounding         :       0.55       0.00       1629          0          0
  shiftandpropagate:       0.01       0.00          1          0          0
  shifting         :       0.15       0.00        534          0          0
  simplerounding   :       0.46       0.00          0          0          0
  subnlp           :      56.04       0.00        263         90          4
  trivial          :       0.00       0.00          2          0          0
  trivialnegation  :       0.00       0.00          0          0          0
  trustregion      :       0.00       0.00          0          0          0
  trysol           :       0.20       0.00          0          0          0
  twoopt           :       0.00       0.00          0          0          0
  undercover       :       0.02       0.00          1          0          0
  vbounds          :       0.00       0.00          0          0          0
  veclendiving     :       1.34       0.00       4466          0          0
  zeroobj          :       0.00       0.00          0          0          0
  zirounding       :       0.09       0.00       1000          0          0
  other solutions  :          -          -          -          0          -
Expressions        :   #IntEval  IntEvalTi   #RevProp  RevPropTi    DomReds    Cutoffs  #Estimate  EstimTime  Branching  #Simplify SimplifyTi Simplified
  pow              :   17119363       2.78       4935       0.00       4437          0   67265132       6.92   10725023        673       0.00         63
  prod             :    1932124       0.48    2008710       0.76     168766          0  183646671      10.97   35706431       1736       0.00        398
  sum              :    3104445       0.84    3098362       1.19     197513          5        209       0.00          0       1463       0.00        531
  val              :          0       0.00          0       0.00          0          0          0       0.00          0          0       0.00          0
  var              :    5142830       0.31          0       0.00          0          0          0       0.00          0       4760       0.00         97
  varidx           :          0       0.00          0       0.00          0          0          0       0.00          0          0       0.00          0
Nlhdlrs            :    Detects  DetectAll DetectTime   #IntEval  IntEvalTi   #RevProp  RevPropTi    DomReds    Cutoffs   #Enforce   EnfoTime       Cuts  Branching
  soc              :          0          0       0.00          0       0.00          0       0.00          0          0          0       0.00          0          0
  convex           :          0          0       0.00          0       0.00          0       0.00          0          0          0       0.00          0          0
  concave          :          0          0       0.00          0       0.00          0       0.00          0          0          0       0.00          0          0
  signomial        :        114        114       0.00          0       0.00          0       0.00          0          0  232262356      81.08    2124714          0
  quotient         :          0          0       0.00          0       0.00          0       0.00          0          0          0       0.00          0          0
  quadratic        :         35        654       0.00     574278       3.74     573777       8.11      37847          0          0       0.00          0          0
  default          :        965      14338       0.00   22152411       5.51    5113533       5.15     370716          5  250911804     257.23   16458402          0
  bilinear         :        231        231       0.00    1916607       0.28    2003069       0.40          0          0  182247577      23.27          3          0
  perspective      :          0          0       0.00          0       0.00          0       0.00          0          0          0       0.00          0          0
LP                 :       Time      Calls Iterations  Iter/call   Iter/sec  Time-0-It Calls-0-It    ItLimit
  primal LP        :     264.29     119938          8       2.67       0.03     264.26     119935
  dual LP          :    1533.40     998306   17815883      19.31   11618.54     174.44      75876
  lex dual LP      :       0.00          0          0       0.00          -
  barrier LP       :       0.00          0          0       0.00          -       0.00          0
  resolve instable :       0.00          0          0       0.00          -
  diving/probing LP:       2.72        724      48277      66.68   17736.92
  strong branching :       1.37        566      21367      37.75   15575.08          -          -        242
    (at root node) :          -          4        190      47.50          -
  conflict analysis:       0.00          0          0       0.00          -
NLP relaxation     :
  solve time       :       2.19 (12 calls)
  convexity        :  nonconvex (195 linear rows, 0 convex ineq., 1 nonconvex ineq., 208 nonlinear eq. or two-sided ineq.)
NLP Solvers        :  #Problems  ProblemTi    #Solves  SolveTime      #Iter  Time/Iter      #Okay #TimeLimit #IterLimit #LObjLimit #Interrupt  #NumError #EvalError  #OutOfMem #LicenseEr #OtherTerm   #GlobOpt    #LocOpt  #Feasible #LocInfeas #GlobInfea #Unbounded   #Unknown
  ipopt            :        265       1.11        277      50.69       9978       0.01        264          0         13          0          0          0          0          0          0          0          0        180          6         83          0          0          8
B&B Tree           :
  number of runs   :          1
  nodes            :     119901 (119699 internal, 202 leaves)
  feasible leaves  :          0
  infeas. leaves   :          1
  objective leaves :        200
  nodes (total)    :     119901 (119699 internal, 202 leaves)
  nodes left       :     119499
  max depth        :         27
  max depth (total):         27
  backtracks       :      18959 (15.8%)
  early backtracks :          0 (0.0%)
  nodes exc. ref.  :          0 (0.0%)
  delayed cutoffs  :          0
  repropagations   :         20 (0 domain reductions, 0 cutoffs)
  avg switch length:       5.99
  switching time   :     304.48
Root Node          :
  First LP value   : -1.01913679562079e+02
  First LP Iters   :        551 (85149.13 Iter/sec)
  First LP Time    :       0.01
  Final Dual Bound : -3.00860560241801e+01
  Final Root Iters :       2670
  Root LP Estimate : -2.48097505051523e+01
Solution           :
  Solutions found  :         90 (4 improvements)
  First Solution   : +9.62447387458069e+00   (in run 1, after 1 nodes, 3.38 seconds, depth 0, found by <conflictdiving>)
  Gap First Sol.   :   infinite
  Gap Last Sol.    :   infinite
  Primal Bound     : +9.16347696668239e+00   (in run 1, after 7636 nodes, 251.44 seconds, depth 16, found by <subnlp>)
  Dual Bound       : -8.27380871683246e+00
  Gap              :   infinite
Integrals          :      Total       Avg%
  primal-dual      :  360000.38     100.00
  primal-ref       :          -          - (not evaluated)
  dual-ref         :          -          - (not evaluated)
